%Mem=3800MB
%NProcShared=6
%chk=/home/itamar/Aromaticity-test-set/T12-old-T14-Fulvenes/Hepta-NH2+/hept-nh2p.chk
#P MP2/6-311++G**  DENSITY=MP2
 
14-H
 
1 1
6 0.686049 -1.911788 0.000000
6 1.552632 -0.790742 0.000000
6 -0.685871 -1.911851 0.000000
6 -1.552553 -0.790867 0.000000
6 -1.266904 0.549956 0.000000
6 0.000000 1.206614 0.000000
6 1.266909 0.550104 0.000000
1 -2.126866 1.213671 0.000000
1 2.126886 1.213799 0.000000
1 2.611223 -1.031326 0.000000
1 1.174737 -2.880184 0.000000
1 -1.174461 -2.880297 0.000000
1 -2.611128 -1.031515 0.000000
7 -0.000206 2.547614 0.000000
1 -0.859586 3.076913 0.000000
1 0.859064 3.077078 0.000000





