%Mem=3800MB
%NProcShared=6
%chk=/home/itamar/Aromaticity-test-set/T6-Subst-Complex-in-Benzene/COCH3/coch3.chk
#P MP2/6-311++G** DENSITY=MP2
 
X=COCH3 - In the original geometry missing oxygen !!! New geometry converged at subdir opt-geom
 
0 1
6   -1.944913    1.106828    0.000034
6   -2.518174   -0.166443   -0.000008
6   -1.702924   -1.296581    0.000020
6   -0.316881   -1.155869    0.000080
6    0.267483    0.117573    0.000124
6   -0.562807    1.247347    0.000101
6    1.754883    0.324361    0.000215
8    2.224506    1.446837    0.000041
6    2.664115   -0.890681   -0.000097
1   -0.098892    2.226084    0.000140
1   -2.578422    1.986655    0.000015
1   -3.596942   -0.276371   -0.000058
1   -2.145375   -2.286246   -0.000008
1    0.303504   -2.043803    0.000103
1    3.698939   -0.552677   -0.000236
1    2.485698   -1.512554    0.882014
1    2.485393   -1.512363   -0.882282




Original geometry missing oxygen

6 -1.981668 1.103537 0.000149
6 -2.550565 -0.172256 0.000049
6 -1.724241 -1.291841 -0.000114
6 -0.337883 -1.142807 -0.000176
6 0.242220 0.131713 -0.000088
6 -0.602114 1.256368 0.000082
6 1.701868 0.301454 -0.000181
8 2.482930 1.346000 0.000214
6 2.685616 -0.884590 0.000026
1 -0.169244 2.250318 0.000158
1 -2.617779 1.981391 0.000276
1 -3.628125 -0.288664 0.000095
1 -2.155202 -2.286572 -0.000190
1 0.289830 -2.025627 -0.000296
1 3.725558 -0.545900 -0.000539
1 2.529342 -1.484793 0.898980
1 2.528647 -1.485635 -0.898248


