%chk=CH2.chk
#P MP2/6-311++G** nosymm Density=MP2 

CH2

0 1
 C                  0.73411506   -0.99016108        0.00000000
 C                 -0.73411506   -0.99016108       -0.00000000
 C                 -1.17931809    0.28165302       -0.00000000
 C                 -0.00000000    1.21605209       -0.00000000
 C                  1.17931809    0.28165302        0.00000000
 H                  1.34788810   -1.88184814        0.00000000
 H                 -1.34788810   -1.88184814       -0.00000000
 H                 -2.21046217    0.60743905       -0.00000000
 H                 -0.00000000    1.87729714       -0.87714607
 H                 -0.00000000    1.87729714        0.87714607
 H                  2.21046217    0.60743905        0.00000000

