%Mem=3800MB
%NProcShared=6
%chk=/home/itamar/Aromaticity-test-set/T9-N6/n6.chk
#P MP2/6-311++G** DENSITY=MP2
 
N6
 
0 1
7 1.132320 0.637643 0.182396
7 1.132315 -0.637649 -0.182399
7 -0.000002 -1.279604 0.000093
7 -1.132322 -0.637612 0.182493
7 -1.132318 0.637618 -0.182490
7 0.000006 1.279604 -0.000094





