%Mem=7600MB
%NProcShared=10
%chk=/home/itamar/Aromaticity-test-set/T11-old-T12-Clar-systems/Dibenzo-anthracene/diben.chk
#P MP2/6-311++G** DENSITY=MP2
 
Dibenzo-anthracene
 
0 1
6 2.501838 -1.454140 0.000000
6 1.225895 -0.742886 0.000000
6 1.225895 0.689244 0.000000
6 2.477150 1.396160 0.000000
6 3.659312 0.733187 0.000000
6 3.711133 -0.703904 0.000000
6 0.012636 1.386960 0.000000
6 -1.225895 0.742886 0.000000
6 -1.225895 -0.689244 0.000000
6 -0.012636 -1.386960 0.000000
6 -2.477150 -1.396161 0.000000
6 -3.659313 -0.733187 0.000000
6 -3.711133 0.703904 0.000000
6 -2.501838 1.454140 0.000000
6 -2.596215 2.861840 0.000000
6 -3.821352 3.503043 0.000000
6 -5.011256 2.758063 0.000000
6 -4.950532 1.379052 0.000000
6 2.596216 -2.861840 0.000000
6 3.821352 -3.503043 0.000000
6 5.011256 -2.758063 0.000000
6 4.950532 -1.379052 0.000000
1 2.454897 2.480962 0.000000
1 4.596202 1.280419 0.000000
1 0.062850 2.468952 0.000000
1 -0.062850 -2.468952 0.000000
1 -2.454898 -2.480962 0.000000
1 -4.596202 -1.280419 0.000000
1 -1.696759 3.464064 0.000000
1 -3.860955 4.586524 0.000000
1 -5.970211 3.263613 0.000000
1 -5.863105 0.791827 0.000000
1 1.696760 -3.464065 0.000000
1 3.860955 -4.586523 0.000000
1 5.970212 -3.263612 0.000000
1 5.863105 -0.791827 0.000000











