%chk=chair-20.chk
#P MP2/6-311++G** nosymm Density=MP2 

Chair-20

0 1
 C                    1.37470753   -0.00000000    0.08074839
 C                    0.69562825    1.21178109   -0.08074839
 C                   -0.69562825    1.21178109    0.08074839
 C                   -1.37470753    0.00000000   -0.08074839
 C                   -0.69562825   -1.21178109    0.08074839
 C                    0.69562825   -1.21178109   -0.08074839
 H                    2.46084068   -0.00000000    0.06827865
 H                    1.24744338    2.14588116   -0.06397994
 H                   -1.24744338    2.14588116    0.06397994
 H                   -2.46084068    0.00000000   -0.06827865
 H                   -1.24744338   -2.14588116    0.06397994
 H                    1.24744338   -2.14588116   -0.06397994

