%Mem=3800MB
%NProcShared=6
%chk=/home/itamar/Aromaticity-test-set/T6-Subst-Complex-in-Benzene/COOCH3/cooch3.chk
#P MP2/6-311++G** DENSITY=MP2
 
X=COOCH3
 
0 1
6 2.212600 1.234959 0.000000
6 1.391589 0.110944 0.000000
6 0.000000 0.262493 0.000000
6 -0.558993 1.545477 0.000000
6 0.264918 2.665692 0.000000
6 1.651568 2.511784 0.000000
6 -0.928811 -0.903650 0.000000
1 -1.637450 1.643544 0.000000
1 -0.171787 3.657705 0.000000
1 2.293835 3.385379 0.000000
1 3.289940 1.115423 0.000000
1 1.820124 -0.882344 0.000000
8 -2.135733 -0.820041 0.000000
8 -0.274499 -2.086246 0.000000
6 -1.103944 -3.261436 0.000000
1 -0.414342 -4.102650 0.000000
1 -1.736017 -3.282166 0.888720
1 -1.736017 -3.282166 -0.888720



