Mem=3800MB
%NProcShared=6
%chk=/home/itamar/Aromaticity-test-set/T1-BLA/02/bla-02.chk
#P MP2/6-311++G** DENSITY=MP2
 
Bla-0.2
 
0 1
6 0.647332 1.236681 0.000000
6 1.394663 -0.057735 0.000000
6 0.747332 -1.178946 0.000000
6 -0.747332 -1.178946 0.000000
6 -1.394663 -0.057735 0.000000
6 -0.647332 1.236681 0.000000
1 1.189544 2.175821 0.000000
1 2.479089 -0.057735 0.000000
1 1.289544 -2.118086 0.000000
1 -1.289544 -2.118086 0.000000
1 -2.479089 -0.057735 0.000000
1 -1.189544 2.175821 0.000000




