%Mem=3800MB
%NProcShared=6
%chk=/home/itamar/Aromaticity-test-set/T4-Chair-Like/10/chair-10.chk
#P MP2/6-311++G** DENSITY=MP2
 
Chair-10
 
0 1
6 0.000000 1.389745 -0.040348
6 1.208747 0.696873 0.040604
6 1.208747 -0.696873 -0.040604
6 0.000000 -1.389745 0.040348
6 -1.208747 -0.696873 -0.040604
6 -1.208747 0.696873 0.040604
1 0.000000 2.474587 -0.032332
1 2.146672 1.241444 0.032108
1 2.146672 -1.241444 -0.032108
1 0.000000 -2.474587 0.032332
1 -2.146672 -1.241444 -0.032108
1 -2.146672 1.241444 0.032108




