%Mem=3800MB
%NProcShared=6
%chk=/home/itamar/Aromaticity-test-set/T11-old-T12-Clar-systems/Benzo-pyrene/ben.chk
#P MP2/6-311++G** DENSITY=MP2
 
Benzo-pyrene
 
0 1
6 -0.918645 -3.524067 0.000000
6 0.297569 -2.843503 0.000000
6 0.356047 -1.444797 0.000000
6 -0.867842 -0.717353 0.000000
6 -2.110651 -1.420619 0.000000
6 -2.113133 -2.823732 0.000000
6 -3.337736 -0.678098 0.000000
6 -3.337735 0.678096 0.000000
6 -2.110654 1.420620 0.000000
6 -0.867842 0.717353 0.000000
6 0.356046 1.444797 0.000000
6 1.624608 0.709685 0.000000
6 1.624606 -0.709685 0.000000
6 0.297566 2.843503 0.000000
6 -0.918646 3.524069 0.000000
6 -2.113134 2.823731 0.000000
6 2.864569 -1.382586 0.000000
6 4.065085 -0.699619 0.000000
6 4.065085 0.699620 0.000000
6 2.864569 1.382587 0.000000
1 -0.923552 -4.608188 0.000000
1 1.207566 -3.427479 0.000000
1 -3.060941 -3.351185 0.000000
1 -4.272087 -1.229433 0.000000
1 -4.272090 1.229426 0.000000
1 1.207563 3.427480 0.000000
1 -0.923555 4.608189 0.000000
1 -3.060943 3.351182 0.000000
1 2.889844 -2.463617 0.000000
1 4.999975 -1.248289 0.000000
1 4.999977 1.248286 0.000000
1 2.889844 2.463618 0.00000










