%Mem=3800MB
%NProcShared=6
%chk=/home/itamar/Aromaticity-test-set/T4-Chair-Like/25/chair-25.chk
#P MP2/6-311++G**  DENSITY=MP2
 
Chair-25
 
0 1
6 0.000000 1.363426 -0.098606
6 1.214164 0.694607 0.101679
6 1.214164 -0.694607 -0.101679
6 0.000000 -1.363426 0.098606
6 -1.214164 -0.694607 -0.101679
6 -1.214164 0.694607 0.101679
1 0.000000 2.450521 -0.084271
1 2.145278 1.251992 0.081689
1 2.145278 -1.251992 -0.081689
1 0.000000 -2.450521 0.084271
1 -2.145278 -1.251992 -0.081689
1 -2.145278 1.251992 0.081689




