%Mem=3800MB
%NProcShared=6
%chk=/home/itamar/Aromaticity-test-set/T1-BLA/01/bla-01.chk
#P MP2/6-311++G** DENSITY=MP2
 
Bla-0.1
 
0 1
6 0.672332 1.222247 0.000000
6 1.394663 -0.028868 0.000000
6 0.722332 -1.193380 0.000000
6 -0.722332 -1.193380 0.000000
6 -1.394663 -0.028868 0.000000
6 -0.672332 1.222247 0.000000
1 1.214544 2.161387 0.000000
1 2.479089 -0.028868 0.000000
1 1.264544 -2.132520 0.000000
1 -1.264544 -2.132520 0.000000
1 -2.479089 -0.028868 0.000000
1 -1.214544 2.161387 0.000000



