%Mem=3800MB
%NProcShared=6
%chk=/home/itamar/Aromaticity-test-set/T7-complexation/cr-complex.chk
#P MP2/6-311++G** DENSITY=MP2
 
Cr complex
 
0 1
6 0.702453 -1.227729 -1.612897
6 -0.702453 -1.227729 -1.612897
1 2.497560 0.003464 -1.580046
6 1.414471 0.005522 -1.612897
6 -1.414471 0.005522 -1.612897
6 -0.712018 1.222207 -1.612897
6 0.712018 1.222207 -1.612897
1 -2.497560 0.003464 -1.580046
1 -1.251780 2.161218 -1.580046
1 1.251780 2.161218 -1.580046
24 0.000000 0.000000 0.107268
6 0.000000 1.510267 1.178287
8 0.000000 2.475062 1.823373
6 1.307930 -0.755134 1.178287
8 2.143466 -1.237531 1.823373
6 -1.307930 -0.755134 1.178287
8 -2.143466 -1.237531 1.823373
1 1.245780 -2.164682 -1.580046
1 -1.245780 -2.164682 -1.580046




