%Mem=3800MB
%NProcShared=6
%chk=/home/itamar/Aromaticity-test-set/T3-Boat-Like/5/boat-5.chk
#P MP2/6-311++G** Density=MP2
 
Boat-5
 
0 1
6 -0.000241 1.394553 0.020335
6 1.207780 0.697048 0.020335
6 1.206222 -0.696422 -0.040494
6 0.000241 -1.394553 0.020335
6 -1.207780 -0.697048 0.020335
6 -1.206222 0.696422 -0.040494
1 -0.000951 2.478853 0.034430
1 2.147186 1.238561 0.034571
1 2.145093 -1.238454 -0.069176
1 0.000951 -2.478853 0.034430
1 -2.147186 -1.238561 0.034571
1 -2.145093 1.238454 -0.069176




