%Mem=3800MB
%NProcShared=6
%chk=/home/itamar/Aromaticity-test-set/T12-old-T14-Fulvenes/Hepta-NH/hept-nh.chk
#P MP2/6-311++G**  DENSITY=MP2
 
Hepta-NH
 
0 1
6 0.693060 -1.861329 0.000000
6 1.571649 -0.720618 0.000000
6 -0.663122 -1.870968 0.000000
6 -1.552205 -0.739001 0.000000
6 -1.279660 0.587909 0.000000
6 0.000000 1.310197 0.000000
6 1.285199 0.602816 0.000000
1 -2.142883 1.250040 0.000000
1 2.123236 1.292580 0.000000
1 2.629386 -0.968425 0.000000
1 1.189120 -2.827162 0.000000
1 -1.148829 -2.841707 0.000000
1 -2.607779 -0.997335 0.000000
7 0.070144 2.602784 0.000000
1 -0.862791 3.018479 0.000000





