%Mem=3800MB
%NProcShared=6
%chk=/home/itamar/Aromaticity-test-set/T11-old-T12-Clar-systems/Phenanthrene/phenan.chk
#P MP2/6-311++G** DENSITY=MP2
 
Phenan
 
0 1
6 1.907313 -3.017175 0.000000
6 2.685629 -1.846679 0.000000
6 2.080243 -0.605325 0.000000
6 0.673458 -0.470416 0.000000
6 -0.110005 -1.660320 0.000000
6 0.532164 -2.919243 0.000000
6 -1.541303 -1.568725 0.000000
6 -2.168682 -0.365155 0.000000
6 -1.424136 0.860572 0.000000
6 0.000000 0.821402 0.000000
6 0.694915 2.051932 0.000000
1 1.777163 2.061414 0.000000
1 2.707622 0.276555 0.000000
6 0.023855 3.259080 0.000000
6 -1.381438 3.291335 0.000000
6 -2.088558 2.107921 0.000000
1 2.387079 -3.989357 0.000000
1 3.767637 -1.916957 0.000000
1 -0.080180 -3.815163 0.000000
1 -2.116109 -2.489029 0.000000
1 -3.252311 -0.309323 0.000000
1 0.585819 4.186369 0.000000
1 -1.903732 4.241343 0.000000
1 -3.173718 2.118929 0.000000







