%Mem=3800MB
%NProcShared=6
%chk=/home/itamar/Aromaticity-test-set/T1-BLA/025/test-mp2/bla-025.chk
#P MP2/6-311++G** Density=MP2
 
Bla-0.25
 
0 1
6 0.634832 1.243898 0.000000
6 1.394663 -0.072169 0.000000
6 0.759832 -1.171729 0.000000
6 -0.759832 -1.171729 0.000000
6 -1.394663 -0.072169 0.000000
6 -0.634832 1.243898 0.000000
1 1.177044 2.183038 0.000000
1 2.479089 -0.072169 0.000000
1 1.302044 -2.110869 0.000000
1 -1.302044 -2.110869 0.000000
1 -2.479089 -0.072169 0.000000
1 -1.177044 2.183038 0.000000



