%Mem=3800MB
%NProcShared=6
%chk=/home/itamar/Aromaticity-test-set/T6-Subst-Complex-in-Benzene/NO2/no2.chk
#P MP2/6-311++G** DENSITY=MP2
 
X=NO2
 
0 1
6 -0.429918 1.218633 0.000000
6 0.241737 0.000003 0.000000
6 -0.429918 -1.218629 0.000000
6 -1.821248 -1.210116 0.000000
6 -2.515605 0.000000 0.000000
6 -1.821248 1.210115 0.000000
7 1.722363 0.000000 0.000000
8 2.290932 -1.084330 0.000000
8 2.290937 1.084324 0.000000
1 0.135010 -2.140423 0.000000
1 -2.362415 -2.148633 0.000000
1 -3.599475 0.000003 0.000000
1 -2.362419 2.148630 0.000000
1 0.135002 2.140433 0.000000



