%chk=Penta-O.chk
#P MP2/6-311++G** nosymm Density=MP2 

Penta-O

0 1
 C           0.00000000    0.82305206    -0.00000000
 C           1.20464609   -0.08850401    -0.00000000
 H           2.22350617    0.26812602    -0.00000000
 C           0.75156606   -1.34680211     0.00000000
 H           1.34618610   -2.25065417     0.00000000
 C          -1.20464609   -0.08850401    -0.00000000
 H          -2.22350617    0.26812602    -0.00000000
 C          -0.75156606   -1.34680211     0.00000000
 H          -1.34618610   -2.25065417     0.00000000
 O           0.00000000    2.03130215    -0.00000000

