%Mem=3800MB
%NProcShared=6
%chk=/home/itamar/Aromaticity-test-set/T10-old-T11-heteroaromatic/CH2/ch2.chk
#P MP2/6-311++G** DENSITY=MP2
 
CH2
 
0 1
6 0.000000 0.734115 -0.990161
6 0.000000 -0.734115 -0.990161
6 0.000000 -1.179318 0.281653
6 0.000000 0.000000 1.216052
6 0.000000 1.179318 0.281653
1 0.000000 1.347888 -1.881848
1 0.000000 -1.347888 -1.881848
1 0.000000 -2.210462 0.607439
1 -0.877146 0.000000 1.877297
1 0.877146 0.000000 1.877297
1 0.000000 2.210462 0.607439






