%nprocshared=4
%chk=E:\- 5 Doutorado\Projetos\0 - aromaticidade roberta\cálculos\Aromaticity-test-set - mine\C6H6\opt\3-sp\SP.chk
#P MP2/6-311++G** nosymm Density=MP2 

14-H

0 1
 C                 -1.21262660    0.70010962   -0.00000000
 C                 -0.00000050    1.40021543   -0.00000000
 C                  1.21262570    0.70010858   -0.00000000
 C                  1.21262660   -0.70010962   -0.00000000
 C                  0.00000050   -1.40021543   -0.00000000
 C                 -1.21262570   -0.70010858   -0.00000000
 H                 -2.15377895    1.24348623   -0.00000000
 H                  0.00000031    2.48696587   -0.00000000
 H                  2.15377791    1.24348561   -0.00000000
 H                  2.15377895   -1.24348623   -0.00000000
 H                 -0.00000031   -2.48696587   -0.00000000
 H                 -2.15377791   -1.24348561   -0.00000000

