%Mem=3800MB
%NProcShared=6
%chk=/home/itamar/Aromaticity-test-set/T13-old-T15-Diels-Alder-TS/da-ts.chk
#P MP2/6-311++G** DENSITY=MP2
 
14-H
 
0 1
6 -0.426946 1.432986 0.496319
6 -0.427164 -1.433129 0.496368
6 -1.323801 0.701175 -0.262393
6 -1.323835 -0.701151 -0.262354
6 1.556444 0.694313 -0.257168
6 1.556966 -0.694220 -0.257321
1 -0.374636 2.509940 0.377999
1 -0.094413 1.068759 1.458987
1 -0.374996 -2.510113 0.378071
1 -0.094247 -1.068877 1.458896
1 -1.891630 1.211696 -1.035200
1 -1.891764 -1.211594 -1.035148
1 2.078276 1.230638 0.526642
1 1.444038 1.233732 -1.188035
1 2.078743 -1.230482 0.526531
1 1.444506 -1.233676 -1.188135



