%Mem=3800MB
%NProcShared=6
%chk=/home/itamar/Aromaticity-test-set/Benzene/benzene.chk
#P MP2/6-311++G** Density=MP2
 
14-H
 
0 1
6 0.000000 1.394663 0.000000
6 1.207814 0.697332 0.000000
6 1.207814 -0.697332 0.000000
6 0.000000 -1.394663 0.000000
6 -1.207814 -0.697332 0.000000
6 -1.207814 0.697332 0.000000
1 0.000000 2.479089 0.000000
1 2.146954 1.239544 0.000000
1 2.146954 -1.239544 0.000000
1 0.000000 -2.479089 0.000000
1 -2.146954 -1.239544 0.000000
1 -2.146954 1.239544 0.000000


