%Mem=3800MB
%NProcShared=6
%chk=/home/itamar/Aromaticity-test-set/T5-Pyramid/10/pyramid-10.chk
#P MP2/6-311++G**  DENSITY=MP2
 
Pyramid-10
 
0 1
6 -1.208367 0.697670 -0.026902
6 -1.208367 -0.697670 -0.026902
6 0.000000 -1.395402 -0.026919
6 1.208367 -0.697670 -0.026902
6 1.208367 0.697670 -0.026902
6 0.000000 1.395402 -0.026919
1 -2.133496 1.231724 0.161453
1 -2.133496 -1.231724 0.161453
1 0.000000 -2.463608 0.161435
1 2.133496 -1.231724 0.161453
1 2.133496 1.231724 0.161453
1 0.000000 2.463608 0.161435


