%Mem=3800MB
%NProcShared=6
%chk=/home/itamar/Aromaticity-test-set/T11-old-T12-Clar-systems/Triphenylene/tri.chk
#P MP2/6-311++G** DENSITY=MP2
 
Triphenylene
 
0 1
6 -2.431423 2.879416 0.000000
6 -2.434607 1.496230 0.000000
6 -1.237320 0.745059 0.000000
6 0.000000 1.444316 0.000000
6 -0.025222 2.857357 0.000000
6 -1.211696 3.568628 0.000000
6 2.512737 1.360197 0.000000
6 1.263931 0.699212 0.000000
6 1.250869 -0.722429 0.000000
6 -0.026624 -1.444243 0.000000
6 -1.250945 -0.722123 0.000000
6 2.487097 -1.406697 0.000000
6 3.696492 -0.734754 0.000000
6 3.709438 0.665761 0.000000
6 -2.461986 -1.450582 0.000000
6 -2.484447 -2.833657 0.000000
6 -1.277925 -3.545288 0.000000
6 -0.078343 -2.856523 0.000000
1 -3.371741 3.423819 0.000000
1 -3.391753 0.988623 0.000000
1 -1.193214 4.654994 0.000000
1 2.505547 -2.489939 0.000000
1 4.627616 -1.294671 0.000000
1 4.650723 1.208458 0.000000
1 -3.409177 -0.924765 0.000000
1 -3.434681 -3.360561 0.000000
1 -1.279275 -4.631832 0.000000
1 0.840006 -3.431249 0.000000
1 2.551976 2.442946 0.000000
1 0.903806 3.414903 0.000000









