%chk=clamp-15.chk
#P MP2/6-311++G** nosymm Density=MP2 

Clamp-15

0 1
 C                    1.40154110    0.01576338   0.00000000
 C                    0.71439605    1.20585648   0.00000000
 C                   -0.71439605    1.20585648  -0.00000000
 C                   -1.40154110    0.01576338  -0.00000000
 C                   -0.68711305   -1.22161671   0.00000000
 C                    0.68711305   -1.22161671   0.00000000
 H                    2.44874719   -0.26485164   0.00000000
 H                    0.99499807    2.25307255   0.00000000
 H                   -0.99499807    2.25307255  -0.00000000
 H                   -2.44874719   -0.26485164  -0.00000000
 H                   -1.45371011   -1.98823977   0.00000000
 H                    1.45371011   -1.98823977   0.00000000

