%nprocshared=8
%chk=/home/jakler/matheus/f.chk
#P MP2/6-311++G** nosymm Density=MP2

X=H

0 1
 C    1.21580609    0.25997988     -0.00000000
 C    1.20676009   -1.13431122      0.00000000
 C    0.00000000   -1.83315328      0.00000000
 C   -1.20676009   -1.13431122     -0.00000000
 C   -1.21580609    0.25997988     -0.00000000
 C   -0.00000000    0.92580893     -0.00000000
 F   -0.00000000    2.28291803     -0.00000000
 H    0.00000000   -2.91654736      0.00000000
 H    2.13882917    0.82605593     -0.00000000
 H   -2.13882917    0.82605593     -0.00000000
 H    2.14728916   -1.67289227      0.00000000
 H   -2.14728916   -1.67289227     -0.00000000

