%chk=clamp-25.chk
#P MP2/6-311++G** nosymm Density=MP2 

Clamp-25

0 1
 C                    1.41875011    0.03506767    0.00000000
 C                    0.73970606    1.21108476    0.00000000
 C                   -0.73970606    1.21108476   -0.00000000
 C                   -1.41875011    0.03506767   -0.00000000
 C                   -0.67898505   -1.24614343    0.00000000
 C                    0.67898505   -1.24614343    0.00000000
 H                    2.39950418   -0.42230337    0.00000000
 H                    0.83402506    2.28913184    0.00000000
 H                   -0.83402506    2.28913184   -0.00000000
 H                   -2.39950418   -0.42230337   -0.00000000
 H                   -1.56542812   -1.86688247    0.00000000
 H                    1.56542812   -1.86688247    0.00000000

