%Mem=3800MB
%NProcShared=6
%chk=/home/itamar/Aromaticity-test-set/T6-Subst-Complex-in-Benzene/COCH3/opt-geom/coch3-opt.chk
#P B3LYP/6-311++G** OPT
 
X=COCH3 - Original geometry missing oxygen !!!
 
0 1
6 -1.981668 1.103537 0.000149
6 -2.550565 -0.172256 0.000049
6 -1.724241 -1.291841 -0.000114
6 -0.337883 -1.142807 -0.000176
6 0.242220 0.131713 -0.000088
6 -0.602114 1.256368 0.000082
6 1.701868 0.301454 -0.000181
8 2.482930 1.346000 0.000214
6 2.685616 -0.884590 0.000026
1 -0.169244 2.250318 0.000158
1 -2.617779 1.981391 0.000276
1 -3.628125 -0.288664 0.000095
1 -2.155202 -2.286572 -0.000190
1 0.289830 -2.025627 -0.000296
1 3.725558 -0.545900 -0.000539
1 2.529342 -1.484793 0.898980
1 2.528647 -1.485635 -0.898248


