%Mem=3800MB
%NProcShared=6
%chk=/home/itamar/Aromaticity-test-set/T12-old-T14-Fulvenes/Hepta-CH2/hepta-ch2.chk
#P MP2/6-311++G** DENSITY=MP2
 
Hepta-CH2
 
0 1
6 0.676294 -1.889034 0.000000
6 1.564903 -0.746685 0.000000
6 -0.675913 -1.889272 0.000000
6 -1.564793 -0.747065 0.000000
6 -1.281978 0.574934 0.000000
6 0.000000 1.284964 0.000000
6 1.281919 0.575328 0.000000
1 -2.141778 1.240127 0.000000
1 2.141798 1.240404 0.000000
1 2.621465 -0.999615 0.000000
1 1.169078 -2.856600 0.000000
1 -1.168393 -2.856985 0.000000
1 -2.621317 -1.000132 0.000000
6 -0.000382 2.640357 0.000000
1 0.923143 3.206099 0.000000
1 -0.924302 3.205544 0.000000


